33D32945 STP File, STP Format Version 1.0

SECTION Comments
Name "cube_n10_d3_s15"
Problem "Euclidean Steiner Tree Problem"
Remark "Generated with STPGenerator. 3 dimensions."
END

SECTION Graph
Nodes 10
END

SECTION Coordinates
DDD 0 0.3549731771 0.6731490375 0.5153574038
DDD 1 0.2768868838 0.9831143995 0.7832298362
DDD 2 0.3857721921 0.3929051535 0.0476035024
DDD 3 0.2348172144 0.1034733854 0.3869860398
DDD 4 0.9775588964 0.7308916956 0.3246047955
DDD 5 0.3443029827 0.6699542467 0.4050064401
DDD 6 0.8388915681 0.8634974965 0.5150421176
DDD 7 0.9928987739 0.9662594152 0.9828661391
DDD 8 0.3598284723 0.0994729628 0.0463795699
DDD 9 0.3319424024 0.7808070447 0.5882075376
END
